--------------------------------------------------
s SATISFIABLE
benchmarks_SAT/INST_9x9/55/inst9x9_55_0.cnf : 8 ms.
--------------------------------------------------
s SATISFIABLE
benchmarks_SAT/INST_9x9/55/inst9x9_55_10.cnf : 10 ms.
--------------------------------------------------
s SATISFIABLE
benchmarks_SAT/INST_9x9/55/inst9x9_55_11.cnf : 8 ms.
--------------------------------------------------
s SATISFIABLE
benchmarks_SAT/INST_9x9/55/inst9x9_55_12.cnf : 7 ms.
--------------------------------------------------
s SATISFIABLE
benchmarks_SAT/INST_9x9/55/inst9x9_55_13.cnf : 7 ms.
--------------------------------------------------
s SATISFIABLE
benchmarks_SAT/INST_9x9/55/inst9x9_55_14.cnf : 8 ms.
--------------------------------------------------
s SATISFIABLE
benchmarks_SAT/INST_9x9/55/inst9x9_55_15.cnf : 7 ms.
--------------------------------------------------
s SATISFIABLE
benchmarks_SAT/INST_9x9/55/inst9x9_55_16.cnf : 7 ms.
--------------------------------------------------
s SATISFIABLE
benchmarks_SAT/INST_9x9/55/inst9x9_55_17.cnf : 7 ms.
--------------------------------------------------
s SATISFIABLE
benchmarks_SAT/INST_9x9/55/inst9x9_55_18.cnf : 8 ms.
--------------------------------------------------
s SATISFIABLE
benchmarks_SAT/INST_9x9/55/inst9x9_55_19.cnf : 7 ms.
--------------------------------------------------
s SATISFIABLE
benchmarks_SAT/INST_9x9/55/inst9x9_55_1.cnf : 7 ms.
--------------------------------------------------
s SATISFIABLE
benchmarks_SAT/INST_9x9/55/inst9x9_55_20.cnf : 8 ms.
--------------------------------------------------
s SATISFIABLE
benchmarks_SAT/INST_9x9/55/inst9x9_55_21.cnf : 8 ms.
--------------------------------------------------
s SATISFIABLE
benchmarks_SAT/INST_9x9/55/inst9x9_55_22.cnf : 7 ms.
--------------------------------------------------
s SATISFIABLE
benchmarks_SAT/INST_9x9/55/inst9x9_55_23.cnf : 7 ms.
--------------------------------------------------
s SATISFIABLE
benchmarks_SAT/INST_9x9/55/inst9x9_55_24.cnf : 10 ms.
--------------------------------------------------
s SATISFIABLE
benchmarks_SAT/INST_9x9/55/inst9x9_55_25.cnf : 8 ms.
--------------------------------------------------
s SATISFIABLE
benchmarks_SAT/INST_9x9/55/inst9x9_55_26.cnf : 9 ms.
--------------------------------------------------
s SATISFIABLE
benchmarks_SAT/INST_9x9/55/inst9x9_55_27.cnf : 8 ms.
--------------------------------------------------
s SATISFIABLE
benchmarks_SAT/INST_9x9/55/inst9x9_55_28.cnf : 7 ms.
--------------------------------------------------
s SATISFIABLE
benchmarks_SAT/INST_9x9/55/inst9x9_55_29.cnf : 9 ms.
--------------------------------------------------
s SATISFIABLE
benchmarks_SAT/INST_9x9/55/inst9x9_55_2.cnf : 7 ms.
--------------------------------------------------
s SATISFIABLE
benchmarks_SAT/INST_9x9/55/inst9x9_55_30.cnf : 7 ms.
--------------------------------------------------
s SATISFIABLE
benchmarks_SAT/INST_9x9/55/inst9x9_55_31.cnf : 8 ms.
--------------------------------------------------
s SATISFIABLE
benchmarks_SAT/INST_9x9/55/inst9x9_55_32.cnf : 8 ms.
--------------------------------------------------
s SATISFIABLE
benchmarks_SAT/INST_9x9/55/inst9x9_55_33.cnf : 7 ms.
--------------------------------------------------
s SATISFIABLE
benchmarks_SAT/INST_9x9/55/inst9x9_55_34.cnf : 7 ms.
--------------------------------------------------
s SATISFIABLE
benchmarks_SAT/INST_9x9/55/inst9x9_55_35.cnf : 7 ms.
--------------------------------------------------
s SATISFIABLE
benchmarks_SAT/INST_9x9/55/inst9x9_55_36.cnf : 9 ms.
--------------------------------------------------
s SATISFIABLE
benchmarks_SAT/INST_9x9/55/inst9x9_55_37.cnf : 10 ms.
--------------------------------------------------
s SATISFIABLE
benchmarks_SAT/INST_9x9/55/inst9x9_55_38.cnf : 9 ms.
--------------------------------------------------
s SATISFIABLE
benchmarks_SAT/INST_9x9/55/inst9x9_55_39.cnf : 10 ms.
--------------------------------------------------
s SATISFIABLE
benchmarks_SAT/INST_9x9/55/inst9x9_55_3.cnf : 9 ms.
--------------------------------------------------
s SATISFIABLE
benchmarks_SAT/INST_9x9/55/inst9x9_55_40.cnf : 9 ms.
--------------------------------------------------
s SATISFIABLE
benchmarks_SAT/INST_9x9/55/inst9x9_55_41.cnf : 8 ms.
--------------------------------------------------
s SATISFIABLE
benchmarks_SAT/INST_9x9/55/inst9x9_55_42.cnf : 8 ms.
--------------------------------------------------
s SATISFIABLE
benchmarks_SAT/INST_9x9/55/inst9x9_55_43.cnf : 8 ms.
--------------------------------------------------
s SATISFIABLE
benchmarks_SAT/INST_9x9/55/inst9x9_55_44.cnf : 13 ms.
--------------------------------------------------
s SATISFIABLE
benchmarks_SAT/INST_9x9/55/inst9x9_55_45.cnf : 11 ms.
--------------------------------------------------
s SATISFIABLE
benchmarks_SAT/INST_9x9/55/inst9x9_55_46.cnf : 7 ms.
--------------------------------------------------
s SATISFIABLE
benchmarks_SAT/INST_9x9/55/inst9x9_55_47.cnf : 8 ms.
--------------------------------------------------
s SATISFIABLE
benchmarks_SAT/INST_9x9/55/inst9x9_55_48.cnf : 7 ms.
--------------------------------------------------
s SATISFIABLE
benchmarks_SAT/INST_9x9/55/inst9x9_55_49.cnf : 8 ms.
--------------------------------------------------
s SATISFIABLE
benchmarks_SAT/INST_9x9/55/inst9x9_55_4.cnf : 8 ms.
--------------------------------------------------
s SATISFIABLE
benchmarks_SAT/INST_9x9/55/inst9x9_55_50.cnf : 8 ms.
--------------------------------------------------
s SATISFIABLE
benchmarks_SAT/INST_9x9/55/inst9x9_55_51.cnf : 8 ms.
--------------------------------------------------
s SATISFIABLE
benchmarks_SAT/INST_9x9/55/inst9x9_55_52.cnf : 7 ms.
--------------------------------------------------
s SATISFIABLE
benchmarks_SAT/INST_9x9/55/inst9x9_55_53.cnf : 8 ms.
--------------------------------------------------
s SATISFIABLE
benchmarks_SAT/INST_9x9/55/inst9x9_55_54.cnf : 7 ms.
--------------------------------------------------
s SATISFIABLE
benchmarks_SAT/INST_9x9/55/inst9x9_55_55.cnf : 8 ms.
--------------------------------------------------
s SATISFIABLE
benchmarks_SAT/INST_9x9/55/inst9x9_55_56.cnf : 7 ms.
--------------------------------------------------
s SATISFIABLE
benchmarks_SAT/INST_9x9/55/inst9x9_55_57.cnf : 8 ms.
--------------------------------------------------
s SATISFIABLE
benchmarks_SAT/INST_9x9/55/inst9x9_55_58.cnf : 8 ms.
--------------------------------------------------
s SATISFIABLE
benchmarks_SAT/INST_9x9/55/inst9x9_55_59.cnf : 7 ms.
--------------------------------------------------
s SATISFIABLE
benchmarks_SAT/INST_9x9/55/inst9x9_55_5.cnf : 8 ms.
--------------------------------------------------
s SATISFIABLE
benchmarks_SAT/INST_9x9/55/inst9x9_55_60.cnf : 9 ms.
--------------------------------------------------
s SATISFIABLE
benchmarks_SAT/INST_9x9/55/inst9x9_55_61.cnf : 8 ms.
--------------------------------------------------
s SATISFIABLE
benchmarks_SAT/INST_9x9/55/inst9x9_55_62.cnf : 7 ms.
--------------------------------------------------
s SATISFIABLE
benchmarks_SAT/INST_9x9/55/inst9x9_55_63.cnf : 7 ms.
--------------------------------------------------
s SATISFIABLE
benchmarks_SAT/INST_9x9/55/inst9x9_55_64.cnf : 8 ms.
--------------------------------------------------
s SATISFIABLE
benchmarks_SAT/INST_9x9/55/inst9x9_55_65.cnf : 8 ms.
--------------------------------------------------
s SATISFIABLE
benchmarks_SAT/INST_9x9/55/inst9x9_55_66.cnf : 8 ms.
--------------------------------------------------
s SATISFIABLE
benchmarks_SAT/INST_9x9/55/inst9x9_55_67.cnf : 10 ms.
--------------------------------------------------
s SATISFIABLE
benchmarks_SAT/INST_9x9/55/inst9x9_55_68.cnf : 7 ms.
--------------------------------------------------
s SATISFIABLE
benchmarks_SAT/INST_9x9/55/inst9x9_55_69.cnf : 8 ms.
--------------------------------------------------
s SATISFIABLE
benchmarks_SAT/INST_9x9/55/inst9x9_55_6.cnf : 7 ms.
--------------------------------------------------
s SATISFIABLE
benchmarks_SAT/INST_9x9/55/inst9x9_55_70.cnf : 7 ms.
--------------------------------------------------
s SATISFIABLE
benchmarks_SAT/INST_9x9/55/inst9x9_55_71.cnf : 9 ms.
--------------------------------------------------
s SATISFIABLE
benchmarks_SAT/INST_9x9/55/inst9x9_55_72.cnf : 7 ms.
--------------------------------------------------
s SATISFIABLE
benchmarks_SAT/INST_9x9/55/inst9x9_55_73.cnf : 8 ms.
--------------------------------------------------
s SATISFIABLE
benchmarks_SAT/INST_9x9/55/inst9x9_55_74.cnf : 9 ms.
--------------------------------------------------
s SATISFIABLE
benchmarks_SAT/INST_9x9/55/inst9x9_55_75.cnf : 9 ms.
--------------------------------------------------
s SATISFIABLE
benchmarks_SAT/INST_9x9/55/inst9x9_55_76.cnf : 9 ms.
--------------------------------------------------
s SATISFIABLE
benchmarks_SAT/INST_9x9/55/inst9x9_55_77.cnf : 8 ms.
--------------------------------------------------
s SATISFIABLE
benchmarks_SAT/INST_9x9/55/inst9x9_55_78.cnf : 8 ms.
--------------------------------------------------
s SATISFIABLE
benchmarks_SAT/INST_9x9/55/inst9x9_55_79.cnf : 8 ms.
--------------------------------------------------
s SATISFIABLE
benchmarks_SAT/INST_9x9/55/inst9x9_55_7.cnf : 7 ms.
--------------------------------------------------
s SATISFIABLE
benchmarks_SAT/INST_9x9/55/inst9x9_55_80.cnf : 7 ms.
--------------------------------------------------
s SATISFIABLE
benchmarks_SAT/INST_9x9/55/inst9x9_55_81.cnf : 8 ms.
--------------------------------------------------
s SATISFIABLE
benchmarks_SAT/INST_9x9/55/inst9x9_55_82.cnf : 9 ms.
--------------------------------------------------
s SATISFIABLE
benchmarks_SAT/INST_9x9/55/inst9x9_55_83.cnf : 7 ms.
--------------------------------------------------
s SATISFIABLE
benchmarks_SAT/INST_9x9/55/inst9x9_55_84.cnf : 8 ms.
--------------------------------------------------
s SATISFIABLE
benchmarks_SAT/INST_9x9/55/inst9x9_55_85.cnf : 9 ms.
--------------------------------------------------
s SATISFIABLE
benchmarks_SAT/INST_9x9/55/inst9x9_55_86.cnf : 9 ms.
--------------------------------------------------
s SATISFIABLE
benchmarks_SAT/INST_9x9/55/inst9x9_55_87.cnf : 10 ms.
--------------------------------------------------
s SATISFIABLE
benchmarks_SAT/INST_9x9/55/inst9x9_55_88.cnf : 8 ms.
--------------------------------------------------
s SATISFIABLE
benchmarks_SAT/INST_9x9/55/inst9x9_55_89.cnf : 9 ms.
--------------------------------------------------
s SATISFIABLE
benchmarks_SAT/INST_9x9/55/inst9x9_55_8.cnf : 8 ms.
--------------------------------------------------
s SATISFIABLE
benchmarks_SAT/INST_9x9/55/inst9x9_55_90.cnf : 8 ms.
--------------------------------------------------
s SATISFIABLE
benchmarks_SAT/INST_9x9/55/inst9x9_55_91.cnf : 8 ms.
--------------------------------------------------
s SATISFIABLE
benchmarks_SAT/INST_9x9/55/inst9x9_55_92.cnf : 8 ms.
--------------------------------------------------
s SATISFIABLE
benchmarks_SAT/INST_9x9/55/inst9x9_55_93.cnf : 11 ms.
--------------------------------------------------
s SATISFIABLE
benchmarks_SAT/INST_9x9/55/inst9x9_55_94.cnf : 8 ms.
--------------------------------------------------
s SATISFIABLE
benchmarks_SAT/INST_9x9/55/inst9x9_55_95.cnf : 8 ms.
--------------------------------------------------
s SATISFIABLE
benchmarks_SAT/INST_9x9/55/inst9x9_55_96.cnf : 8 ms.
--------------------------------------------------
s SATISFIABLE
benchmarks_SAT/INST_9x9/55/inst9x9_55_97.cnf : 8 ms.
--------------------------------------------------
s SATISFIABLE
benchmarks_SAT/INST_9x9/55/inst9x9_55_98.cnf : 8 ms.
--------------------------------------------------
s SATISFIABLE
benchmarks_SAT/INST_9x9/55/inst9x9_55_99.cnf : 9 ms.
--------------------------------------------------
s SATISFIABLE
benchmarks_SAT/INST_9x9/55/inst9x9_55_9.cnf : 9 ms.
